data/lp_files/q1/27.lp
\ Model foo
\ LP format - for model browsing. Use MPS format to capture full model detail.
Minimize
  z
Subject To
 allocateEach[1]: x[1,1] + x[2,1] = 1
 allocateEach[2]: x[1,2] + x[2,2] = 1
 allocateEach[3]: x[1,3] + x[2,3] = 1
 allocateEach[4]: x[1,4] + x[2,4] = 1
 allocateEach[5]: x[1,5] + x[2,5] = 1
 allocateEach[6]: x[1,6] + x[2,6] = 1
 allocateEach[7]: x[1,7] + x[2,7] = 1
 findWorstP[1,2]: z + 0.0972038519549832 x[1,1] + 0.093050237846618 x[1,2]
   + 0.13751015198979 x[1,3] + 0.1557489267896508 x[1,4]
   + 0.1219399002204432 x[1,5] + 0.199071818076343 x[1,6]
   + 0.195475113122172 x[1,7] - 0.0972038519549832 x[2,1]
   - 0.093050237846618 x[2,2] - 0.13751015198979 x[2,3]
   - 0.1557489267896508 x[2,4] - 0.1219399002204432 x[2,5]
   - 0.199071818076343 x[2,6] - 0.195475113122172 x[2,7] >= 0
 findWorstP[2,1]: z - 0.247832026609646 x[1,1] - 0.1535994297933 x[1,2]
   - 0.1385424091233072 x[1,3] - 0.1257127583749109 x[1,4]
   - 0.0474578284628178 x[1,5] - 0.0579413162271323 x[1,6]
   - 0.2289142314088857 x[1,7] + 0.247832026609646 x[2,1]
   + 0.1535994297933 x[2,2] + 0.1385424091233072 x[2,3]
   + 0.1257127583749109 x[2,4] + 0.0474578284628178 x[2,5]
   + 0.0579413162271323 x[2,6] + 0.2289142314088857 x[2,7] >= 0
Bounds
 z <= 1
Binaries
 x[1,1] x[1,2] x[1,3] x[1,4] x[1,5] x[1,6] x[1,7] x[2,1] x[2,2] x[2,3]
 x[2,4] x[2,5] x[2,6] x[2,7]
End
