data/mps_files/q2/27.mps
NAME foo
ROWS
 N  OBJ
 E  allocateEach[1]
 E  allocateEach[2]
 E  allocateEach[3]
 E  allocateEach[4]
 E  allocateEach[5]
 E  allocateEach[6]
 E  allocateEach[7]
 E  determineSetsMinusOneItem
 L  setContinuity[1,1]
 L  setContinuity[1,2]
 L  setContinuity[1,3]
 L  setContinuity[1,4]
 L  setContinuity[1,5]
 L  setContinuity[1,6]
 L  setContinuity[1,7]
 L  setContinuity[2,1]
 L  setContinuity[2,2]
 L  setContinuity[2,3]
 L  setContinuity[2,4]
 L  setContinuity[2,5]
 L  setContinuity[2,6]
 L  setContinuity[2,7]
 G  findWorstP[1,2,1]
 G  findWorstP[1,2,2]
 G  findWorstP[1,2,3]
 G  findWorstP[1,2,4]
 G  findWorstP[1,2,5]
 G  findWorstP[1,2,6]
 G  findWorstP[1,2,7]
 G  findWorstP[2,1,1]
 G  findWorstP[2,1,2]
 G  findWorstP[2,1,3]
 G  findWorstP[2,1,4]
 G  findWorstP[2,1,5]
 G  findWorstP[2,1,6]
 G  findWorstP[2,1,7]
COLUMNS
    z         OBJ       1
    z         findWorstP[1,2,1]  1
    z         findWorstP[1,2,2]  1
    z         findWorstP[1,2,3]  1
    z         findWorstP[1,2,4]  1
    z         findWorstP[1,2,5]  1
    z         findWorstP[1,2,6]  1
    z         findWorstP[1,2,7]  1
    z         findWorstP[2,1,1]  1
    z         findWorstP[2,1,2]  1
    z         findWorstP[2,1,3]  1
    z         findWorstP[2,1,4]  1
    z         findWorstP[2,1,5]  1
    z         findWorstP[2,1,6]  1
    z         findWorstP[2,1,7]  1
    MARKER    'MARKER'                 'INTORG'
    x[1,1]    allocateEach[1]  1
    x[1,1]    setContinuity[1,1]  -1
    x[1,1]    findWorstP[1,2,1]  9.7203851954983184e-02
    x[1,1]    findWorstP[1,2,2]  9.7203851954983184e-02
    x[1,1]    findWorstP[1,2,3]  9.7203851954983184e-02
    x[1,1]    findWorstP[1,2,4]  9.7203851954983184e-02
    x[1,1]    findWorstP[1,2,5]  9.7203851954983184e-02
    x[1,1]    findWorstP[1,2,6]  9.7203851954983184e-02
    x[1,1]    findWorstP[1,2,7]  9.7203851954983184e-02
    x[1,2]    allocateEach[2]  1
    x[1,2]    setContinuity[1,2]  -1
    x[1,2]    findWorstP[1,2,1]  9.3050237846617950e-02
    x[1,2]    findWorstP[1,2,2]  9.3050237846617950e-02
    x[1,2]    findWorstP[1,2,3]  9.3050237846617950e-02
    x[1,2]    findWorstP[1,2,4]  9.3050237846617950e-02
    x[1,2]    findWorstP[1,2,5]  9.3050237846617950e-02
    x[1,2]    findWorstP[1,2,6]  9.3050237846617950e-02
    x[1,2]    findWorstP[1,2,7]  9.3050237846617950e-02
    x[1,3]    allocateEach[3]  1
    x[1,3]    setContinuity[1,3]  -1
    x[1,3]    findWorstP[1,2,1]  0.13751015198979
    x[1,3]    findWorstP[1,2,2]  0.13751015198979
    x[1,3]    findWorstP[1,2,3]  0.13751015198979
    x[1,3]    findWorstP[1,2,4]  0.13751015198979
    x[1,3]    findWorstP[1,2,5]  0.13751015198979
    x[1,3]    findWorstP[1,2,6]  0.13751015198979
    x[1,3]    findWorstP[1,2,7]  0.13751015198979
    x[1,4]    allocateEach[4]  1
    x[1,4]    setContinuity[1,4]  -1
    x[1,4]    findWorstP[1,2,1]  1.5574892678965077e-01
    x[1,4]    findWorstP[1,2,2]  1.5574892678965077e-01
    x[1,4]    findWorstP[1,2,3]  1.5574892678965077e-01
    x[1,4]    findWorstP[1,2,4]  1.5574892678965077e-01
    x[1,4]    findWorstP[1,2,5]  1.5574892678965077e-01
    x[1,4]    findWorstP[1,2,6]  1.5574892678965077e-01
    x[1,4]    findWorstP[1,2,7]  1.5574892678965077e-01
    x[1,5]    allocateEach[5]  1
    x[1,5]    setContinuity[1,5]  -1
    x[1,5]    findWorstP[1,2,1]  1.2193990022044321e-01
    x[1,5]    findWorstP[1,2,2]  1.2193990022044321e-01
    x[1,5]    findWorstP[1,2,3]  1.2193990022044321e-01
    x[1,5]    findWorstP[1,2,4]  1.2193990022044321e-01
    x[1,5]    findWorstP[1,2,5]  1.2193990022044321e-01
    x[1,5]    findWorstP[1,2,6]  1.2193990022044321e-01
    x[1,5]    findWorstP[1,2,7]  1.2193990022044321e-01
    x[1,6]    allocateEach[6]  1
    x[1,6]    setContinuity[1,6]  -1
    x[1,6]    findWorstP[1,2,1]  1.9907181807634297e-01
    x[1,6]    findWorstP[1,2,2]  1.9907181807634297e-01
    x[1,6]    findWorstP[1,2,3]  1.9907181807634297e-01
    x[1,6]    findWorstP[1,2,4]  1.9907181807634297e-01
    x[1,6]    findWorstP[1,2,5]  1.9907181807634297e-01
    x[1,6]    findWorstP[1,2,6]  1.9907181807634297e-01
    x[1,6]    findWorstP[1,2,7]  1.9907181807634297e-01
    x[1,7]    allocateEach[7]  1
    x[1,7]    setContinuity[1,7]  -1
    x[1,7]    findWorstP[1,2,1]  1.9547511312217197e-01
    x[1,7]    findWorstP[1,2,2]  1.9547511312217197e-01
    x[1,7]    findWorstP[1,2,3]  1.9547511312217197e-01
    x[1,7]    findWorstP[1,2,4]  1.9547511312217197e-01
    x[1,7]    findWorstP[1,2,5]  1.9547511312217197e-01
    x[1,7]    findWorstP[1,2,6]  1.9547511312217197e-01
    x[1,7]    findWorstP[1,2,7]  1.9547511312217197e-01
    x[2,1]    allocateEach[1]  1
    x[2,1]    setContinuity[2,1]  -1
    x[2,1]    findWorstP[2,1,1]  2.4783202660964598e-01
    x[2,1]    findWorstP[2,1,2]  2.4783202660964598e-01
    x[2,1]    findWorstP[2,1,3]  2.4783202660964598e-01
    x[2,1]    findWorstP[2,1,4]  2.4783202660964598e-01
    x[2,1]    findWorstP[2,1,5]  2.4783202660964598e-01
    x[2,1]    findWorstP[2,1,6]  2.4783202660964598e-01
    x[2,1]    findWorstP[2,1,7]  2.4783202660964598e-01
    x[2,2]    allocateEach[2]  1
    x[2,2]    setContinuity[2,2]  -1
    x[2,2]    findWorstP[2,1,1]  1.5359942979330005e-01
    x[2,2]    findWorstP[2,1,2]  1.5359942979330005e-01
    x[2,2]    findWorstP[2,1,3]  1.5359942979330005e-01
    x[2,2]    findWorstP[2,1,4]  1.5359942979330005e-01
    x[2,2]    findWorstP[2,1,5]  1.5359942979330005e-01
    x[2,2]    findWorstP[2,1,6]  1.5359942979330005e-01
    x[2,2]    findWorstP[2,1,7]  1.5359942979330005e-01
    x[2,3]    allocateEach[3]  1
    x[2,3]    setContinuity[2,3]  -1
    x[2,3]    findWorstP[2,1,1]  1.3854240912330720e-01
    x[2,3]    findWorstP[2,1,2]  1.3854240912330720e-01
    x[2,3]    findWorstP[2,1,3]  1.3854240912330720e-01
    x[2,3]    findWorstP[2,1,4]  1.3854240912330720e-01
    x[2,3]    findWorstP[2,1,5]  1.3854240912330720e-01
    x[2,3]    findWorstP[2,1,6]  1.3854240912330720e-01
    x[2,3]    findWorstP[2,1,7]  1.3854240912330720e-01
    x[2,4]    allocateEach[4]  1
    x[2,4]    setContinuity[2,4]  -1
    x[2,4]    findWorstP[2,1,1]  1.2571275837491089e-01
    x[2,4]    findWorstP[2,1,2]  1.2571275837491089e-01
    x[2,4]    findWorstP[2,1,3]  1.2571275837491089e-01
    x[2,4]    findWorstP[2,1,4]  1.2571275837491089e-01
    x[2,4]    findWorstP[2,1,5]  1.2571275837491089e-01
    x[2,4]    findWorstP[2,1,6]  1.2571275837491089e-01
    x[2,4]    findWorstP[2,1,7]  1.2571275837491089e-01
    x[2,5]    allocateEach[5]  1
    x[2,5]    setContinuity[2,5]  -1
    x[2,5]    findWorstP[2,1,1]  4.7457828462817764e-02
    x[2,5]    findWorstP[2,1,2]  4.7457828462817764e-02
    x[2,5]    findWorstP[2,1,3]  4.7457828462817764e-02
    x[2,5]    findWorstP[2,1,4]  4.7457828462817764e-02
    x[2,5]    findWorstP[2,1,5]  4.7457828462817764e-02
    x[2,5]    findWorstP[2,1,6]  4.7457828462817764e-02
    x[2,5]    findWorstP[2,1,7]  4.7457828462817764e-02
    x[2,6]    allocateEach[6]  1
    x[2,6]    setContinuity[2,6]  -1
    x[2,6]    findWorstP[2,1,1]  5.7941316227132326e-02
    x[2,6]    findWorstP[2,1,2]  5.7941316227132326e-02
    x[2,6]    findWorstP[2,1,3]  5.7941316227132326e-02
    x[2,6]    findWorstP[2,1,4]  5.7941316227132326e-02
    x[2,6]    findWorstP[2,1,5]  5.7941316227132326e-02
    x[2,6]    findWorstP[2,1,6]  5.7941316227132326e-02
    x[2,6]    findWorstP[2,1,7]  5.7941316227132326e-02
    x[2,7]    allocateEach[7]  1
    x[2,7]    setContinuity[2,7]  -1
    x[2,7]    findWorstP[2,1,1]  2.2891423140888570e-01
    x[2,7]    findWorstP[2,1,2]  2.2891423140888570e-01
    x[2,7]    findWorstP[2,1,3]  2.2891423140888570e-01
    x[2,7]    findWorstP[2,1,4]  2.2891423140888570e-01
    x[2,7]    findWorstP[2,1,5]  2.2891423140888570e-01
    x[2,7]    findWorstP[2,1,6]  2.2891423140888570e-01
    x[2,7]    findWorstP[2,1,7]  2.2891423140888570e-01
    y[1,1]    determineSetsMinusOneItem  1
    y[1,1]    setContinuity[1,1]  1
    y[1,1]    findWorstP[2,1,1]  -2.4783202660964598e-01
    y[1,1]    findWorstP[2,1,2]  -2.4783202660964598e-01
    y[1,1]    findWorstP[2,1,3]  -2.4783202660964598e-01
    y[1,1]    findWorstP[2,1,4]  -2.4783202660964598e-01
    y[1,1]    findWorstP[2,1,5]  -2.4783202660964598e-01
    y[1,1]    findWorstP[2,1,6]  -2.4783202660964598e-01
    y[1,1]    findWorstP[2,1,7]  -2.4783202660964598e-01
    y[1,2]    determineSetsMinusOneItem  1
    y[1,2]    setContinuity[1,2]  1
    y[1,2]    findWorstP[2,1,1]  -1.5359942979330005e-01
    y[1,2]    findWorstP[2,1,2]  -1.5359942979330005e-01
    y[1,2]    findWorstP[2,1,3]  -1.5359942979330005e-01
    y[1,2]    findWorstP[2,1,4]  -1.5359942979330005e-01
    y[1,2]    findWorstP[2,1,5]  -1.5359942979330005e-01
    y[1,2]    findWorstP[2,1,6]  -1.5359942979330005e-01
    y[1,2]    findWorstP[2,1,7]  -1.5359942979330005e-01
    y[1,3]    determineSetsMinusOneItem  1
    y[1,3]    setContinuity[1,3]  1
    y[1,3]    findWorstP[2,1,1]  -1.3854240912330720e-01
    y[1,3]    findWorstP[2,1,2]  -1.3854240912330720e-01
    y[1,3]    findWorstP[2,1,3]  -1.3854240912330720e-01
    y[1,3]    findWorstP[2,1,4]  -1.3854240912330720e-01
    y[1,3]    findWorstP[2,1,5]  -1.3854240912330720e-01
    y[1,3]    findWorstP[2,1,6]  -1.3854240912330720e-01
    y[1,3]    findWorstP[2,1,7]  -1.3854240912330720e-01
    y[1,4]    determineSetsMinusOneItem  1
    y[1,4]    setContinuity[1,4]  1
    y[1,4]    findWorstP[2,1,1]  -1.2571275837491089e-01
    y[1,4]    findWorstP[2,1,2]  -1.2571275837491089e-01
    y[1,4]    findWorstP[2,1,3]  -1.2571275837491089e-01
    y[1,4]    findWorstP[2,1,4]  -1.2571275837491089e-01
    y[1,4]    findWorstP[2,1,5]  -1.2571275837491089e-01
    y[1,4]    findWorstP[2,1,6]  -1.2571275837491089e-01
    y[1,4]    findWorstP[2,1,7]  -1.2571275837491089e-01
    y[1,5]    determineSetsMinusOneItem  1
    y[1,5]    setContinuity[1,5]  1
    y[1,5]    findWorstP[2,1,1]  -4.7457828462817764e-02
    y[1,5]    findWorstP[2,1,2]  -4.7457828462817764e-02
    y[1,5]    findWorstP[2,1,3]  -4.7457828462817764e-02
    y[1,5]    findWorstP[2,1,4]  -4.7457828462817764e-02
    y[1,5]    findWorstP[2,1,5]  -4.7457828462817764e-02
    y[1,5]    findWorstP[2,1,6]  -4.7457828462817764e-02
    y[1,5]    findWorstP[2,1,7]  -4.7457828462817764e-02
    y[1,6]    determineSetsMinusOneItem  1
    y[1,6]    setContinuity[1,6]  1
    y[1,6]    findWorstP[2,1,1]  -5.7941316227132326e-02
    y[1,6]    findWorstP[2,1,2]  -5.7941316227132326e-02
    y[1,6]    findWorstP[2,1,3]  -5.7941316227132326e-02
    y[1,6]    findWorstP[2,1,4]  -5.7941316227132326e-02
    y[1,6]    findWorstP[2,1,5]  -5.7941316227132326e-02
    y[1,6]    findWorstP[2,1,6]  -5.7941316227132326e-02
    y[1,6]    findWorstP[2,1,7]  -5.7941316227132326e-02
    y[1,7]    determineSetsMinusOneItem  1
    y[1,7]    setContinuity[1,7]  1
    y[1,7]    findWorstP[2,1,1]  -2.2891423140888570e-01
    y[1,7]    findWorstP[2,1,2]  -2.2891423140888570e-01
    y[1,7]    findWorstP[2,1,3]  -2.2891423140888570e-01
    y[1,7]    findWorstP[2,1,4]  -2.2891423140888570e-01
    y[1,7]    findWorstP[2,1,5]  -2.2891423140888570e-01
    y[1,7]    findWorstP[2,1,6]  -2.2891423140888570e-01
    y[1,7]    findWorstP[2,1,7]  -2.2891423140888570e-01
    y[2,1]    determineSetsMinusOneItem  1
    y[2,1]    setContinuity[2,1]  1
    y[2,1]    findWorstP[1,2,1]  -9.7203851954983184e-02
    y[2,1]    findWorstP[1,2,2]  -9.7203851954983184e-02
    y[2,1]    findWorstP[1,2,3]  -9.7203851954983184e-02
    y[2,1]    findWorstP[1,2,4]  -9.7203851954983184e-02
    y[2,1]    findWorstP[1,2,5]  -9.7203851954983184e-02
    y[2,1]    findWorstP[1,2,6]  -9.7203851954983184e-02
    y[2,1]    findWorstP[1,2,7]  -9.7203851954983184e-02
    y[2,2]    determineSetsMinusOneItem  1
    y[2,2]    setContinuity[2,2]  1
    y[2,2]    findWorstP[1,2,1]  -9.3050237846617950e-02
    y[2,2]    findWorstP[1,2,2]  -9.3050237846617950e-02
    y[2,2]    findWorstP[1,2,3]  -9.3050237846617950e-02
    y[2,2]    findWorstP[1,2,4]  -9.3050237846617950e-02
    y[2,2]    findWorstP[1,2,5]  -9.3050237846617950e-02
    y[2,2]    findWorstP[1,2,6]  -9.3050237846617950e-02
    y[2,2]    findWorstP[1,2,7]  -9.3050237846617950e-02
    y[2,3]    determineSetsMinusOneItem  1
    y[2,3]    setContinuity[2,3]  1
    y[2,3]    findWorstP[1,2,1]  -0.13751015198979
    y[2,3]    findWorstP[1,2,2]  -0.13751015198979
    y[2,3]    findWorstP[1,2,3]  -0.13751015198979
    y[2,3]    findWorstP[1,2,4]  -0.13751015198979
    y[2,3]    findWorstP[1,2,5]  -0.13751015198979
    y[2,3]    findWorstP[1,2,6]  -0.13751015198979
    y[2,3]    findWorstP[1,2,7]  -0.13751015198979
    y[2,4]    determineSetsMinusOneItem  1
    y[2,4]    setContinuity[2,4]  1
    y[2,4]    findWorstP[1,2,1]  -1.5574892678965077e-01
    y[2,4]    findWorstP[1,2,2]  -1.5574892678965077e-01
    y[2,4]    findWorstP[1,2,3]  -1.5574892678965077e-01
    y[2,4]    findWorstP[1,2,4]  -1.5574892678965077e-01
    y[2,4]    findWorstP[1,2,5]  -1.5574892678965077e-01
    y[2,4]    findWorstP[1,2,6]  -1.5574892678965077e-01
    y[2,4]    findWorstP[1,2,7]  -1.5574892678965077e-01
    y[2,5]    determineSetsMinusOneItem  1
    y[2,5]    setContinuity[2,5]  1
    y[2,5]    findWorstP[1,2,1]  -1.2193990022044321e-01
    y[2,5]    findWorstP[1,2,2]  -1.2193990022044321e-01
    y[2,5]    findWorstP[1,2,3]  -1.2193990022044321e-01
    y[2,5]    findWorstP[1,2,4]  -1.2193990022044321e-01
    y[2,5]    findWorstP[1,2,5]  -1.2193990022044321e-01
    y[2,5]    findWorstP[1,2,6]  -1.2193990022044321e-01
    y[2,5]    findWorstP[1,2,7]  -1.2193990022044321e-01
    y[2,6]    determineSetsMinusOneItem  1
    y[2,6]    setContinuity[2,6]  1
    y[2,6]    findWorstP[1,2,1]  -1.9907181807634297e-01
    y[2,6]    findWorstP[1,2,2]  -1.9907181807634297e-01
    y[2,6]    findWorstP[1,2,3]  -1.9907181807634297e-01
    y[2,6]    findWorstP[1,2,4]  -1.9907181807634297e-01
    y[2,6]    findWorstP[1,2,5]  -1.9907181807634297e-01
    y[2,6]    findWorstP[1,2,6]  -1.9907181807634297e-01
    y[2,6]    findWorstP[1,2,7]  -1.9907181807634297e-01
    y[2,7]    determineSetsMinusOneItem  1
    y[2,7]    setContinuity[2,7]  1
    y[2,7]    findWorstP[1,2,1]  -1.9547511312217197e-01
    y[2,7]    findWorstP[1,2,2]  -1.9547511312217197e-01
    y[2,7]    findWorstP[1,2,3]  -1.9547511312217197e-01
    y[2,7]    findWorstP[1,2,4]  -1.9547511312217197e-01
    y[2,7]    findWorstP[1,2,5]  -1.9547511312217197e-01
    y[2,7]    findWorstP[1,2,6]  -1.9547511312217197e-01
    y[2,7]    findWorstP[1,2,7]  -1.9547511312217197e-01
    MARKER    'MARKER'                 'INTEND'
RHS
    RHS1      allocateEach[1]  1
    RHS1      allocateEach[2]  1
    RHS1      allocateEach[3]  1
    RHS1      allocateEach[4]  1
    RHS1      allocateEach[5]  1
    RHS1      allocateEach[6]  1
    RHS1      allocateEach[7]  1
    RHS1      determineSetsMinusOneItem  6
BOUNDS
 UP BND1      z         1
 BV BND1      x[1,1]  
 BV BND1      x[1,2]  
 BV BND1      x[1,3]  
 BV BND1      x[1,4]  
 BV BND1      x[1,5]  
 BV BND1      x[1,6]  
 BV BND1      x[1,7]  
 BV BND1      x[2,1]  
 BV BND1      x[2,2]  
 BV BND1      x[2,3]  
 BV BND1      x[2,4]  
 BV BND1      x[2,5]  
 BV BND1      x[2,6]  
 BV BND1      x[2,7]  
 BV BND1      y[1,1]  
 BV BND1      y[1,2]  
 BV BND1      y[1,3]  
 BV BND1      y[1,4]  
 BV BND1      y[1,5]  
 BV BND1      y[1,6]  
 BV BND1      y[1,7]  
 BV BND1      y[2,1]  
 BV BND1      y[2,2]  
 BV BND1      y[2,3]  
 BV BND1      y[2,4]  
 BV BND1      y[2,5]  
 BV BND1      y[2,6]  
 BV BND1      y[2,7]  
ENDATA
